#pLT is two-dimensional [i,r]=[component, individual]
#[i,*] means all data in row i.

param pLT := 
[1,*]
1  0    2  5    3  7    4  2    5  5    6  2    

[2,*]
1  1    2  5    3  2    4  4    5  2    6  4    
;